; Query 1543 -- Type: InitialValues, Instructions: 5172596
(set-option :produce-models true)
(set-logic QF_AUFBV )
(declare-fun addrbase () (Array (_ BitVec 32) (_ BitVec 8) ) )
(declare-fun addrofs () (Array (_ BitVec 32) (_ BitVec 8) ) )
(declare-fun ex_spr_read () (Array (_ BitVec 32) (_ BitVec 8) ) )
(declare-fun ex_spr_write () (Array (_ BitVec 32) (_ BitVec 8) ) )
(declare-fun ov_we () (Array (_ BitVec 32) (_ BitVec 8) ) )
(declare-fun ovforw () (Array (_ BitVec 32) (_ BitVec 8) ) )
(assert (let ( (?B1 (select  ov_we (_ bv0 32) ) ) (?B2 ((_ zero_extend 24)  (select  ex_spr_write (_ bv0 32) ) ) ) (?B3 (bvor  (concat  (select  addrbase (_ bv3 32) ) (concat  (select  addrbase (_ bv2 32) ) (concat  (select  addrbase (_ bv1 32) ) (select  addrbase (_ bv0 32) ) ) ) ) ((_ zero_extend 16)  (concat  (select  addrofs (_ bv1 32) ) (select  addrofs (_ bv0 32) ) ) ) ) ) (?B4 (bvshl  (bvand  ((_ zero_extend 24)  (select  ovforw (_ bv0 32) ) ) (_ bv1 32) ) (_ bv11 32) ) ) ) (let ( (?B5 (bvand  (bvand  (bvor  (bvand  (bvand  (bvand  (bvand  (bvand  (bvand  (bvor  (bvand  (bvand  (bvand  (bvand  (bvand  (bvand  ?B4 (_ bv4294966271 32) ) (_ bv4294966783 32) ) (_ bv4294901759 32) ) (_ bv4294966784 32) ) (_ bv4294905855 32) ) (_ bv4294965247 32) ) ?B4 ) (_ bv4294966271 32) ) (_ bv4294966783 32) ) (_ bv4294901759 32) ) (_ bv4294966784 32) ) (_ bv4294905855 32) ) (_ bv4294965247 32) ) ?B4 ) (_ bv4294966271 32) ) (_ bv4294966783 32) ) ) ) (and  (and  (=  (_ bv0 8) ((_ extract 7  0)  (bvor  (bvand  ((_ zero_extend 24)  ((_ extract 7  0)  ?B2 ) ) ((_ zero_extend 24)  ((_ extract 7  0)  (bvand  (bvlshr  (bvand  (bvsub  (_ bv0 32) (bvor  ((_ zero_extend 24)  (select  ex_spr_read (_ bv0 32) ) ) (bvand  ?B2 (bvlshr  (bvor  (bvshl  (bvand  (bvlshr  ?B5 (_ bv15 32) ) (_ bv3 32) ) (_ bv15 32) ) (bvor  (bvshl  ((_ zero_extend 24)  ((_ extract 7  0)  ((_ zero_extend 24)  ((_ extract 7  0)  (bvand  (bvlshr  ?B5 (_ bv14 32) ) (_ bv1 32) ) ) ) ) ) (_ bv14 32) ) (bvand  (bvlshr  ?B5 (_ bv0 32) ) (_ bv16383 32) ) ) ) (_ bv0 32) ) ) ) ) (_ bv131072 32) ) (_ bv0 32) ) ((_ zero_extend 31)  (ite (=  (_ bv17 32) (bvand  (bvlshr  ?B3 (_ bv0 32) ) (_ bv2047 32) ) ) (_ bv1 1) (_ bv0 1) ) ) ) ) ) ) ((_ zero_extend 24)  ?B1 ) ) ) ) (=  (_ bv17 32) (bvand  (bvlshr  ?B3 (_ bv11 32) ) (_ bv31 32) ) ) ) (=  false (=  (_ bv0 8) ?B1 ) ) ) ) ) )
(check-sat)
(get-value ( (select addrbase (_ bv0 32) ) ) )
(get-value ( (select addrbase (_ bv1 32) ) ) )
(get-value ( (select addrbase (_ bv2 32) ) ) )
(get-value ( (select addrbase (_ bv3 32) ) ) )
(get-value ( (select addrofs (_ bv0 32) ) ) )
(get-value ( (select addrofs (_ bv1 32) ) ) )
(get-value ( (select addrofs (_ bv2 32) ) ) )
(get-value ( (select addrofs (_ bv3 32) ) ) )
(get-value ( (select ex_spr_write (_ bv0 32) ) ) )
(get-value ( (select ex_spr_write (_ bv1 32) ) ) )
(get-value ( (select ex_spr_write (_ bv2 32) ) ) )
(get-value ( (select ex_spr_write (_ bv3 32) ) ) )
(get-value ( (select ex_spr_read (_ bv0 32) ) ) )
(get-value ( (select ex_spr_read (_ bv1 32) ) ) )
(get-value ( (select ex_spr_read (_ bv2 32) ) ) )
(get-value ( (select ex_spr_read (_ bv3 32) ) ) )
(get-value ( (select ovforw (_ bv0 32) ) ) )
(get-value ( (select ovforw (_ bv1 32) ) ) )
(get-value ( (select ovforw (_ bv2 32) ) ) )
(get-value ( (select ovforw (_ bv3 32) ) ) )
(get-value ( (select ov_we (_ bv0 32) ) ) )
(get-value ( (select ov_we (_ bv1 32) ) ) )
(get-value ( (select ov_we (_ bv2 32) ) ) )
(get-value ( (select ov_we (_ bv3 32) ) ) )
(exit)
;   OK -- Elapsed: 3.889084e-03
;   Solvable: false
